/*********************************************
 * OPL 12.6.0.0 Data
 * Author: Adrian Rodriguez Bazaga, Pau Rodriguez Esmerats
 * Creation Date: 06/12/2017 at 23:03:08
 *********************************************/

nNurses=261;
maxConsec=2;
maxPresence=7;
maxHours=5;
minHours=1;
hours=24;
demand= [45 39 71 70 39 71 70 42 47 28 6 4 6 5 9 2 7 2 3 1 39 73 37 62  ];
